10	5
0	6	2	7	3	4	1	5
1	1	9
2	2	8	9
3	2	8	6
4	3	8	9	6
5	2	6	8
6	0
7	2	1	6
8	1	11
9	1	11
10	1	11
11	0
0	0	0	0	0	0	0
1	5	5	3	3	3	3
2	8	4	0	0	5	1
3	10	0	2	0	2	0
4	6	4	4	0	0	0
5	3	0	3	0	0	3
6	7	5	0	0	0	0
7	8	0	5	0	2	2
8	2	2	0	0	3	0
9	6	3	0	3	0	0
10	4	2	0	4	3	0
11	0	0	0	0	0	0
7	8	5	6	6
